7
2147483647 14 39 83 12 42 69 
14 2147483647 37 42 86 83 58 
39 37 2147483647 58 3 93 60 
83 42 58 2147483647 5 94 38 
12 86 3 5 2147483647 21 53 
42 83 93 94 21 2147483647 24 
69 58 60 38 53 24 2147483647 
